c clique coloring problem for 8 -- 8 -- 7
p cnf 184 2200
1 9 17 25 33 41 49 57 0
2 10 18 26 34 42 50 58 0
3 11 19 27 35 43 51 59 0
4 12 20 28 36 44 52 60 0
5 13 21 29 37 45 53 61 0
6 14 22 30 38 46 54 62 0
7 15 23 31 39 47 55 63 0
8 16 24 32 40 48 56 64 0
-2 -1 0
-10 -9 0
-18 -17 0
-26 -25 0
-34 -33 0
-42 -41 0
-50 -49 0
-58 -57 0
-3 -1 0
-11 -9 0
-19 -17 0
-27 -25 0
-35 -33 0
-43 -41 0
-51 -49 0
-59 -57 0
-3 -2 0
-11 -10 0
-19 -18 0
-27 -26 0
-35 -34 0
-43 -42 0
-51 -50 0
-59 -58 0
-4 -1 0
-12 -9 0
-20 -17 0
-28 -25 0
-36 -33 0
-44 -41 0
-52 -49 0
-60 -57 0
-4 -2 0
-12 -10 0
-20 -18 0
-28 -26 0
-36 -34 0
-44 -42 0
-52 -50 0
-60 -58 0
-4 -3 0
-12 -11 0
-20 -19 0
-28 -27 0
-36 -35 0
-44 -43 0
-52 -51 0
-60 -59 0
-5 -1 0
-13 -9 0
-21 -17 0
-29 -25 0
-37 -33 0
-45 -41 0
-53 -49 0
-61 -57 0
-5 -2 0
-13 -10 0
-21 -18 0
-29 -26 0
-37 -34 0
-45 -42 0
-53 -50 0
-61 -58 0
-5 -3 0
-13 -11 0
-21 -19 0
-29 -27 0
-37 -35 0
-45 -43 0
-53 -51 0
-61 -59 0
-5 -4 0
-13 -12 0
-21 -20 0
-29 -28 0
-37 -36 0
-45 -44 0
-53 -52 0
-61 -60 0
-6 -1 0
-14 -9 0
-22 -17 0
-30 -25 0
-38 -33 0
-46 -41 0
-54 -49 0
-62 -57 0
-6 -2 0
-14 -10 0
-22 -18 0
-30 -26 0
-38 -34 0
-46 -42 0
-54 -50 0
-62 -58 0
-6 -3 0
-14 -11 0
-22 -19 0
-30 -27 0
-38 -35 0
-46 -43 0
-54 -51 0
-62 -59 0
-6 -4 0
-14 -12 0
-22 -20 0
-30 -28 0
-38 -36 0
-46 -44 0
-54 -52 0
-62 -60 0
-6 -5 0
-14 -13 0
-22 -21 0
-30 -29 0
-38 -37 0
-46 -45 0
-54 -53 0
-62 -61 0
-7 -1 0
-15 -9 0
-23 -17 0
-31 -25 0
-39 -33 0
-47 -41 0
-55 -49 0
-63 -57 0
-7 -2 0
-15 -10 0
-23 -18 0
-31 -26 0
-39 -34 0
-47 -42 0
-55 -50 0
-63 -58 0
-7 -3 0
-15 -11 0
-23 -19 0
-31 -27 0
-39 -35 0
-47 -43 0
-55 -51 0
-63 -59 0
-7 -4 0
-15 -12 0
-23 -20 0
-31 -28 0
-39 -36 0
-47 -44 0
-55 -52 0
-63 -60 0
-7 -5 0
-15 -13 0
-23 -21 0
-31 -29 0
-39 -37 0
-47 -45 0
-55 -53 0
-63 -61 0
-7 -6 0
-15 -14 0
-23 -22 0
-31 -30 0
-39 -38 0
-47 -46 0
-55 -54 0
-63 -62 0
-8 -1 0
-16 -9 0
-24 -17 0
-32 -25 0
-40 -33 0
-48 -41 0
-56 -49 0
-64 -57 0
-8 -2 0
-16 -10 0
-24 -18 0
-32 -26 0
-40 -34 0
-48 -42 0
-56 -50 0
-64 -58 0
-8 -3 0
-16 -11 0
-24 -19 0
-32 -27 0
-40 -35 0
-48 -43 0
-56 -51 0
-64 -59 0
-8 -4 0
-16 -12 0
-24 -20 0
-32 -28 0
-40 -36 0
-48 -44 0
-56 -52 0
-64 -60 0
-8 -5 0
-16 -13 0
-24 -21 0
-32 -29 0
-40 -37 0
-48 -45 0
-56 -53 0
-64 -61 0
-8 -6 0
-16 -14 0
-24 -22 0
-32 -30 0
-40 -38 0
-48 -46 0
-56 -54 0
-64 -62 0
-8 -7 0
-16 -15 0
-24 -23 0
-32 -31 0
-40 -39 0
-48 -47 0
-56 -55 0
-64 -63 0
-2 -9 73 0
-2 -17 81 0
-2 -25 89 0
-2 -33 97 0
-2 -41 105 0
-2 -49 113 0
-2 -57 121 0
-10 -1 66 0
-10 -17 82 0
-10 -25 90 0
-10 -33 98 0
-10 -41 106 0
-10 -49 114 0
-10 -57 122 0
-18 -1 67 0
-18 -9 75 0
-18 -25 91 0
-18 -33 99 0
-18 -41 107 0
-18 -49 115 0
-18 -57 123 0
-26 -1 68 0
-26 -9 76 0
-26 -17 84 0
-26 -33 100 0
-26 -41 108 0
-26 -49 116 0
-26 -57 124 0
-34 -1 69 0
-34 -9 77 0
-34 -17 85 0
-34 -25 93 0
-34 -41 109 0
-34 -49 117 0
-34 -57 125 0
-42 -1 70 0
-42 -9 78 0
-42 -17 86 0
-42 -25 94 0
-42 -33 102 0
-42 -49 118 0
-42 -57 126 0
-50 -1 71 0
-50 -9 79 0
-50 -17 87 0
-50 -25 95 0
-50 -33 103 0
-50 -41 111 0
-50 -57 127 0
-58 -1 72 0
-58 -9 80 0
-58 -17 88 0
-58 -25 96 0
-58 -33 104 0
-58 -41 112 0
-58 -49 120 0
-3 -9 73 0
-3 -17 81 0
-3 -25 89 0
-3 -33 97 0
-3 -41 105 0
-3 -49 113 0
-3 -57 121 0
-11 -1 66 0
-11 -17 82 0
-11 -25 90 0
-11 -33 98 0
-11 -41 106 0
-11 -49 114 0
-11 -57 122 0
-19 -1 67 0
-19 -9 75 0
-19 -25 91 0
-19 -33 99 0
-19 -41 107 0
-19 -49 115 0
-19 -57 123 0
-27 -1 68 0
-27 -9 76 0
-27 -17 84 0
-27 -33 100 0
-27 -41 108 0
-27 -49 116 0
-27 -57 124 0
-35 -1 69 0
-35 -9 77 0
-35 -17 85 0
-35 -25 93 0
-35 -41 109 0
-35 -49 117 0
-35 -57 125 0
-43 -1 70 0
-43 -9 78 0
-43 -17 86 0
-43 -25 94 0
-43 -33 102 0
-43 -49 118 0
-43 -57 126 0
-51 -1 71 0
-51 -9 79 0
-51 -17 87 0
-51 -25 95 0
-51 -33 103 0
-51 -41 111 0
-51 -57 127 0
-59 -1 72 0
-59 -9 80 0
-59 -17 88 0
-59 -25 96 0
-59 -33 104 0
-59 -41 112 0
-59 -49 120 0
-3 -10 73 0
-3 -18 81 0
-3 -26 89 0
-3 -34 97 0
-3 -42 105 0
-3 -50 113 0
-3 -58 121 0
-11 -2 66 0
-11 -18 82 0
-11 -26 90 0
-11 -34 98 0
-11 -42 106 0
-11 -50 114 0
-11 -58 122 0
-19 -2 67 0
-19 -10 75 0
-19 -26 91 0
-19 -34 99 0
-19 -42 107 0
-19 -50 115 0
-19 -58 123 0
-27 -2 68 0
-27 -10 76 0
-27 -18 84 0
-27 -34 100 0
-27 -42 108 0
-27 -50 116 0
-27 -58 124 0
-35 -2 69 0
-35 -10 77 0
-35 -18 85 0
-35 -26 93 0
-35 -42 109 0
-35 -50 117 0
-35 -58 125 0
-43 -2 70 0
-43 -10 78 0
-43 -18 86 0
-43 -26 94 0
-43 -34 102 0
-43 -50 118 0
-43 -58 126 0
-51 -2 71 0
-51 -10 79 0
-51 -18 87 0
-51 -26 95 0
-51 -34 103 0
-51 -42 111 0
-51 -58 127 0
-59 -2 72 0
-59 -10 80 0
-59 -18 88 0
-59 -26 96 0
-59 -34 104 0
-59 -42 112 0
-59 -50 120 0
-4 -9 73 0
-4 -17 81 0
-4 -25 89 0
-4 -33 97 0
-4 -41 105 0
-4 -49 113 0
-4 -57 121 0
-12 -1 66 0
-12 -17 82 0
-12 -25 90 0
-12 -33 98 0
-12 -41 106 0
-12 -49 114 0
-12 -57 122 0
-20 -1 67 0
-20 -9 75 0
-20 -25 91 0
-20 -33 99 0
-20 -41 107 0
-20 -49 115 0
-20 -57 123 0
-28 -1 68 0
-28 -9 76 0
-28 -17 84 0
-28 -33 100 0
-28 -41 108 0
-28 -49 116 0
-28 -57 124 0
-36 -1 69 0
-36 -9 77 0
-36 -17 85 0
-36 -25 93 0
-36 -41 109 0
-36 -49 117 0
-36 -57 125 0
-44 -1 70 0
-44 -9 78 0
-44 -17 86 0
-44 -25 94 0
-44 -33 102 0
-44 -49 118 0
-44 -57 126 0
-52 -1 71 0
-52 -9 79 0
-52 -17 87 0
-52 -25 95 0
-52 -33 103 0
-52 -41 111 0
-52 -57 127 0
-60 -1 72 0
-60 -9 80 0
-60 -17 88 0
-60 -25 96 0
-60 -33 104 0
-60 -41 112 0
-60 -49 120 0
-4 -10 73 0
-4 -18 81 0
-4 -26 89 0
-4 -34 97 0
-4 -42 105 0
-4 -50 113 0
-4 -58 121 0
-12 -2 66 0
-12 -18 82 0
-12 -26 90 0
-12 -34 98 0
-12 -42 106 0
-12 -50 114 0
-12 -58 122 0
-20 -2 67 0
-20 -10 75 0
-20 -26 91 0
-20 -34 99 0
-20 -42 107 0
-20 -50 115 0
-20 -58 123 0
-28 -2 68 0
-28 -10 76 0
-28 -18 84 0
-28 -34 100 0
-28 -42 108 0
-28 -50 116 0
-28 -58 124 0
-36 -2 69 0
-36 -10 77 0
-36 -18 85 0
-36 -26 93 0
-36 -42 109 0
-36 -50 117 0
-36 -58 125 0
-44 -2 70 0
-44 -10 78 0
-44 -18 86 0
-44 -26 94 0
-44 -34 102 0
-44 -50 118 0
-44 -58 126 0
-52 -2 71 0
-52 -10 79 0
-52 -18 87 0
-52 -26 95 0
-52 -34 103 0
-52 -42 111 0
-52 -58 127 0
-60 -2 72 0
-60 -10 80 0
-60 -18 88 0
-60 -26 96 0
-60 -34 104 0
-60 -42 112 0
-60 -50 120 0
-4 -11 73 0
-4 -19 81 0
-4 -27 89 0
-4 -35 97 0
-4 -43 105 0
-4 -51 113 0
-4 -59 121 0
-12 -3 66 0
-12 -19 82 0
-12 -27 90 0
-12 -35 98 0
-12 -43 106 0
-12 -51 114 0
-12 -59 122 0
-20 -3 67 0
-20 -11 75 0
-20 -27 91 0
-20 -35 99 0
-20 -43 107 0
-20 -51 115 0
-20 -59 123 0
-28 -3 68 0
-28 -11 76 0
-28 -19 84 0
-28 -35 100 0
-28 -43 108 0
-28 -51 116 0
-28 -59 124 0
-36 -3 69 0
-36 -11 77 0
-36 -19 85 0
-36 -27 93 0
-36 -43 109 0
-36 -51 117 0
-36 -59 125 0
-44 -3 70 0
-44 -11 78 0
-44 -19 86 0
-44 -27 94 0
-44 -35 102 0
-44 -51 118 0
-44 -59 126 0
-52 -3 71 0
-52 -11 79 0
-52 -19 87 0
-52 -27 95 0
-52 -35 103 0
-52 -43 111 0
-52 -59 127 0
-60 -3 72 0
-60 -11 80 0
-60 -19 88 0
-60 -27 96 0
-60 -35 104 0
-60 -43 112 0
-60 -51 120 0
-5 -9 73 0
-5 -17 81 0
-5 -25 89 0
-5 -33 97 0
-5 -41 105 0
-5 -49 113 0
-5 -57 121 0
-13 -1 66 0
-13 -17 82 0
-13 -25 90 0
-13 -33 98 0
-13 -41 106 0
-13 -49 114 0
-13 -57 122 0
-21 -1 67 0
-21 -9 75 0
-21 -25 91 0
-21 -33 99 0
-21 -41 107 0
-21 -49 115 0
-21 -57 123 0
-29 -1 68 0
-29 -9 76 0
-29 -17 84 0
-29 -33 100 0
-29 -41 108 0
-29 -49 116 0
-29 -57 124 0
-37 -1 69 0
-37 -9 77 0
-37 -17 85 0
-37 -25 93 0
-37 -41 109 0
-37 -49 117 0
-37 -57 125 0
-45 -1 70 0
-45 -9 78 0
-45 -17 86 0
-45 -25 94 0
-45 -33 102 0
-45 -49 118 0
-45 -57 126 0
-53 -1 71 0
-53 -9 79 0
-53 -17 87 0
-53 -25 95 0
-53 -33 103 0
-53 -41 111 0
-53 -57 127 0
-61 -1 72 0
-61 -9 80 0
-61 -17 88 0
-61 -25 96 0
-61 -33 104 0
-61 -41 112 0
-61 -49 120 0
-5 -10 73 0
-5 -18 81 0
-5 -26 89 0
-5 -34 97 0
-5 -42 105 0
-5 -50 113 0
-5 -58 121 0
-13 -2 66 0
-13 -18 82 0
-13 -26 90 0
-13 -34 98 0
-13 -42 106 0
-13 -50 114 0
-13 -58 122 0
-21 -2 67 0
-21 -10 75 0
-21 -26 91 0
-21 -34 99 0
-21 -42 107 0
-21 -50 115 0
-21 -58 123 0
-29 -2 68 0
-29 -10 76 0
-29 -18 84 0
-29 -34 100 0
-29 -42 108 0
-29 -50 116 0
-29 -58 124 0
-37 -2 69 0
-37 -10 77 0
-37 -18 85 0
-37 -26 93 0
-37 -42 109 0
-37 -50 117 0
-37 -58 125 0
-45 -2 70 0
-45 -10 78 0
-45 -18 86 0
-45 -26 94 0
-45 -34 102 0
-45 -50 118 0
-45 -58 126 0
-53 -2 71 0
-53 -10 79 0
-53 -18 87 0
-53 -26 95 0
-53 -34 103 0
-53 -42 111 0
-53 -58 127 0
-61 -2 72 0
-61 -10 80 0
-61 -18 88 0
-61 -26 96 0
-61 -34 104 0
-61 -42 112 0
-61 -50 120 0
-5 -11 73 0
-5 -19 81 0
-5 -27 89 0
-5 -35 97 0
-5 -43 105 0
-5 -51 113 0
-5 -59 121 0
-13 -3 66 0
-13 -19 82 0
-13 -27 90 0
-13 -35 98 0
-13 -43 106 0
-13 -51 114 0
-13 -59 122 0
-21 -3 67 0
-21 -11 75 0
-21 -27 91 0
-21 -35 99 0
-21 -43 107 0
-21 -51 115 0
-21 -59 123 0
-29 -3 68 0
-29 -11 76 0
-29 -19 84 0
-29 -35 100 0
-29 -43 108 0
-29 -51 116 0
-29 -59 124 0
-37 -3 69 0
-37 -11 77 0
-37 -19 85 0
-37 -27 93 0
-37 -43 109 0
-37 -51 117 0
-37 -59 125 0
-45 -3 70 0
-45 -11 78 0
-45 -19 86 0
-45 -27 94 0
-45 -35 102 0
-45 -51 118 0
-45 -59 126 0
-53 -3 71 0
-53 -11 79 0
-53 -19 87 0
-53 -27 95 0
-53 -35 103 0
-53 -43 111 0
-53 -59 127 0
-61 -3 72 0
-61 -11 80 0
-61 -19 88 0
-61 -27 96 0
-61 -35 104 0
-61 -43 112 0
-61 -51 120 0
-5 -12 73 0
-5 -20 81 0
-5 -28 89 0
-5 -36 97 0
-5 -44 105 0
-5 -52 113 0
-5 -60 121 0
-13 -4 66 0
-13 -20 82 0
-13 -28 90 0
-13 -36 98 0
-13 -44 106 0
-13 -52 114 0
-13 -60 122 0
-21 -4 67 0
-21 -12 75 0
-21 -28 91 0
-21 -36 99 0
-21 -44 107 0
-21 -52 115 0
-21 -60 123 0
-29 -4 68 0
-29 -12 76 0
-29 -20 84 0
-29 -36 100 0
-29 -44 108 0
-29 -52 116 0
-29 -60 124 0
-37 -4 69 0
-37 -12 77 0
-37 -20 85 0
-37 -28 93 0
-37 -44 109 0
-37 -52 117 0
-37 -60 125 0
-45 -4 70 0
-45 -12 78 0
-45 -20 86 0
-45 -28 94 0
-45 -36 102 0
-45 -52 118 0
-45 -60 126 0
-53 -4 71 0
-53 -12 79 0
-53 -20 87 0
-53 -28 95 0
-53 -36 103 0
-53 -44 111 0
-53 -60 127 0
-61 -4 72 0
-61 -12 80 0
-61 -20 88 0
-61 -28 96 0
-61 -36 104 0
-61 -44 112 0
-61 -52 120 0
-6 -9 73 0
-6 -17 81 0
-6 -25 89 0
-6 -33 97 0
-6 -41 105 0
-6 -49 113 0
-6 -57 121 0
-14 -1 66 0
-14 -17 82 0
-14 -25 90 0
-14 -33 98 0
-14 -41 106 0
-14 -49 114 0
-14 -57 122 0
-22 -1 67 0
-22 -9 75 0
-22 -25 91 0
-22 -33 99 0
-22 -41 107 0
-22 -49 115 0
-22 -57 123 0
-30 -1 68 0
-30 -9 76 0
-30 -17 84 0
-30 -33 100 0
-30 -41 108 0
-30 -49 116 0
-30 -57 124 0
-38 -1 69 0
-38 -9 77 0
-38 -17 85 0
-38 -25 93 0
-38 -41 109 0
-38 -49 117 0
-38 -57 125 0
-46 -1 70 0
-46 -9 78 0
-46 -17 86 0
-46 -25 94 0
-46 -33 102 0
-46 -49 118 0
-46 -57 126 0
-54 -1 71 0
-54 -9 79 0
-54 -17 87 0
-54 -25 95 0
-54 -33 103 0
-54 -41 111 0
-54 -57 127 0
-62 -1 72 0
-62 -9 80 0
-62 -17 88 0
-62 -25 96 0
-62 -33 104 0
-62 -41 112 0
-62 -49 120 0
-6 -10 73 0
-6 -18 81 0
-6 -26 89 0
-6 -34 97 0
-6 -42 105 0
-6 -50 113 0
-6 -58 121 0
-14 -2 66 0
-14 -18 82 0
-14 -26 90 0
-14 -34 98 0
-14 -42 106 0
-14 -50 114 0
-14 -58 122 0
-22 -2 67 0
-22 -10 75 0
-22 -26 91 0
-22 -34 99 0
-22 -42 107 0
-22 -50 115 0
-22 -58 123 0
-30 -2 68 0
-30 -10 76 0
-30 -18 84 0
-30 -34 100 0
-30 -42 108 0
-30 -50 116 0
-30 -58 124 0
-38 -2 69 0
-38 -10 77 0
-38 -18 85 0
-38 -26 93 0
-38 -42 109 0
-38 -50 117 0
-38 -58 125 0
-46 -2 70 0
-46 -10 78 0
-46 -18 86 0
-46 -26 94 0
-46 -34 102 0
-46 -50 118 0
-46 -58 126 0
-54 -2 71 0
-54 -10 79 0
-54 -18 87 0
-54 -26 95 0
-54 -34 103 0
-54 -42 111 0
-54 -58 127 0
-62 -2 72 0
-62 -10 80 0
-62 -18 88 0
-62 -26 96 0
-62 -34 104 0
-62 -42 112 0
-62 -50 120 0
-6 -11 73 0
-6 -19 81 0
-6 -27 89 0
-6 -35 97 0
-6 -43 105 0
-6 -51 113 0
-6 -59 121 0
-14 -3 66 0
-14 -19 82 0
-14 -27 90 0
-14 -35 98 0
-14 -43 106 0
-14 -51 114 0
-14 -59 122 0
-22 -3 67 0
-22 -11 75 0
-22 -27 91 0
-22 -35 99 0
-22 -43 107 0
-22 -51 115 0
-22 -59 123 0
-30 -3 68 0
-30 -11 76 0
-30 -19 84 0
-30 -35 100 0
-30 -43 108 0
-30 -51 116 0
-30 -59 124 0
-38 -3 69 0
-38 -11 77 0
-38 -19 85 0
-38 -27 93 0
-38 -43 109 0
-38 -51 117 0
-38 -59 125 0
-46 -3 70 0
-46 -11 78 0
-46 -19 86 0
-46 -27 94 0
-46 -35 102 0
-46 -51 118 0
-46 -59 126 0
-54 -3 71 0
-54 -11 79 0
-54 -19 87 0
-54 -27 95 0
-54 -35 103 0
-54 -43 111 0
-54 -59 127 0
-62 -3 72 0
-62 -11 80 0
-62 -19 88 0
-62 -27 96 0
-62 -35 104 0
-62 -43 112 0
-62 -51 120 0
-6 -12 73 0
-6 -20 81 0
-6 -28 89 0
-6 -36 97 0
-6 -44 105 0
-6 -52 113 0
-6 -60 121 0
-14 -4 66 0
-14 -20 82 0
-14 -28 90 0
-14 -36 98 0
-14 -44 106 0
-14 -52 114 0
-14 -60 122 0
-22 -4 67 0
-22 -12 75 0
-22 -28 91 0
-22 -36 99 0
-22 -44 107 0
-22 -52 115 0
-22 -60 123 0
-30 -4 68 0
-30 -12 76 0
-30 -20 84 0
-30 -36 100 0
-30 -44 108 0
-30 -52 116 0
-30 -60 124 0
-38 -4 69 0
-38 -12 77 0
-38 -20 85 0
-38 -28 93 0
-38 -44 109 0
-38 -52 117 0
-38 -60 125 0
-46 -4 70 0
-46 -12 78 0
-46 -20 86 0
-46 -28 94 0
-46 -36 102 0
-46 -52 118 0
-46 -60 126 0
-54 -4 71 0
-54 -12 79 0
-54 -20 87 0
-54 -28 95 0
-54 -36 103 0
-54 -44 111 0
-54 -60 127 0
-62 -4 72 0
-62 -12 80 0
-62 -20 88 0
-62 -28 96 0
-62 -36 104 0
-62 -44 112 0
-62 -52 120 0
-6 -13 73 0
-6 -21 81 0
-6 -29 89 0
-6 -37 97 0
-6 -45 105 0
-6 -53 113 0
-6 -61 121 0
-14 -5 66 0
-14 -21 82 0
-14 -29 90 0
-14 -37 98 0
-14 -45 106 0
-14 -53 114 0
-14 -61 122 0
-22 -5 67 0
-22 -13 75 0
-22 -29 91 0
-22 -37 99 0
-22 -45 107 0
-22 -53 115 0
-22 -61 123 0
-30 -5 68 0
-30 -13 76 0
-30 -21 84 0
-30 -37 100 0
-30 -45 108 0
-30 -53 116 0
-30 -61 124 0
-38 -5 69 0
-38 -13 77 0
-38 -21 85 0
-38 -29 93 0
-38 -45 109 0
-38 -53 117 0
-38 -61 125 0
-46 -5 70 0
-46 -13 78 0
-46 -21 86 0
-46 -29 94 0
-46 -37 102 0
-46 -53 118 0
-46 -61 126 0
-54 -5 71 0
-54 -13 79 0
-54 -21 87 0
-54 -29 95 0
-54 -37 103 0
-54 -45 111 0
-54 -61 127 0
-62 -5 72 0
-62 -13 80 0
-62 -21 88 0
-62 -29 96 0
-62 -37 104 0
-62 -45 112 0
-62 -53 120 0
-7 -9 73 0
-7 -17 81 0
-7 -25 89 0
-7 -33 97 0
-7 -41 105 0
-7 -49 113 0
-7 -57 121 0
-15 -1 66 0
-15 -17 82 0
-15 -25 90 0
-15 -33 98 0
-15 -41 106 0
-15 -49 114 0
-15 -57 122 0
-23 -1 67 0
-23 -9 75 0
-23 -25 91 0
-23 -33 99 0
-23 -41 107 0
-23 -49 115 0
-23 -57 123 0
-31 -1 68 0
-31 -9 76 0
-31 -17 84 0
-31 -33 100 0
-31 -41 108 0
-31 -49 116 0
-31 -57 124 0
-39 -1 69 0
-39 -9 77 0
-39 -17 85 0
-39 -25 93 0
-39 -41 109 0
-39 -49 117 0
-39 -57 125 0
-47 -1 70 0
-47 -9 78 0
-47 -17 86 0
-47 -25 94 0
-47 -33 102 0
-47 -49 118 0
-47 -57 126 0
-55 -1 71 0
-55 -9 79 0
-55 -17 87 0
-55 -25 95 0
-55 -33 103 0
-55 -41 111 0
-55 -57 127 0
-63 -1 72 0
-63 -9 80 0
-63 -17 88 0
-63 -25 96 0
-63 -33 104 0
-63 -41 112 0
-63 -49 120 0
-7 -10 73 0
-7 -18 81 0
-7 -26 89 0
-7 -34 97 0
-7 -42 105 0
-7 -50 113 0
-7 -58 121 0
-15 -2 66 0
-15 -18 82 0
-15 -26 90 0
-15 -34 98 0
-15 -42 106 0
-15 -50 114 0
-15 -58 122 0
-23 -2 67 0
-23 -10 75 0
-23 -26 91 0
-23 -34 99 0
-23 -42 107 0
-23 -50 115 0
-23 -58 123 0
-31 -2 68 0
-31 -10 76 0
-31 -18 84 0
-31 -34 100 0
-31 -42 108 0
-31 -50 116 0
-31 -58 124 0
-39 -2 69 0
-39 -10 77 0
-39 -18 85 0
-39 -26 93 0
-39 -42 109 0
-39 -50 117 0
-39 -58 125 0
-47 -2 70 0
-47 -10 78 0
-47 -18 86 0
-47 -26 94 0
-47 -34 102 0
-47 -50 118 0
-47 -58 126 0
-55 -2 71 0
-55 -10 79 0
-55 -18 87 0
-55 -26 95 0
-55 -34 103 0
-55 -42 111 0
-55 -58 127 0
-63 -2 72 0
-63 -10 80 0
-63 -18 88 0
-63 -26 96 0
-63 -34 104 0
-63 -42 112 0
-63 -50 120 0
-7 -11 73 0
-7 -19 81 0
-7 -27 89 0
-7 -35 97 0
-7 -43 105 0
-7 -51 113 0
-7 -59 121 0
-15 -3 66 0
-15 -19 82 0
-15 -27 90 0
-15 -35 98 0
-15 -43 106 0
-15 -51 114 0
-15 -59 122 0
-23 -3 67 0
-23 -11 75 0
-23 -27 91 0
-23 -35 99 0
-23 -43 107 0
-23 -51 115 0
-23 -59 123 0
-31 -3 68 0
-31 -11 76 0
-31 -19 84 0
-31 -35 100 0
-31 -43 108 0
-31 -51 116 0
-31 -59 124 0
-39 -3 69 0
-39 -11 77 0
-39 -19 85 0
-39 -27 93 0
-39 -43 109 0
-39 -51 117 0
-39 -59 125 0
-47 -3 70 0
-47 -11 78 0
-47 -19 86 0
-47 -27 94 0
-47 -35 102 0
-47 -51 118 0
-47 -59 126 0
-55 -3 71 0
-55 -11 79 0
-55 -19 87 0
-55 -27 95 0
-55 -35 103 0
-55 -43 111 0
-55 -59 127 0
-63 -3 72 0
-63 -11 80 0
-63 -19 88 0
-63 -27 96 0
-63 -35 104 0
-63 -43 112 0
-63 -51 120 0
-7 -12 73 0
-7 -20 81 0
-7 -28 89 0
-7 -36 97 0
-7 -44 105 0
-7 -52 113 0
-7 -60 121 0
-15 -4 66 0
-15 -20 82 0
-15 -28 90 0
-15 -36 98 0
-15 -44 106 0
-15 -52 114 0
-15 -60 122 0
-23 -4 67 0
-23 -12 75 0
-23 -28 91 0
-23 -36 99 0
-23 -44 107 0
-23 -52 115 0
-23 -60 123 0
-31 -4 68 0
-31 -12 76 0
-31 -20 84 0
-31 -36 100 0
-31 -44 108 0
-31 -52 116 0
-31 -60 124 0
-39 -4 69 0
-39 -12 77 0
-39 -20 85 0
-39 -28 93 0
-39 -44 109 0
-39 -52 117 0
-39 -60 125 0
-47 -4 70 0
-47 -12 78 0
-47 -20 86 0
-47 -28 94 0
-47 -36 102 0
-47 -52 118 0
-47 -60 126 0
-55 -4 71 0
-55 -12 79 0
-55 -20 87 0
-55 -28 95 0
-55 -36 103 0
-55 -44 111 0
-55 -60 127 0
-63 -4 72 0
-63 -12 80 0
-63 -20 88 0
-63 -28 96 0
-63 -36 104 0
-63 -44 112 0
-63 -52 120 0
-7 -13 73 0
-7 -21 81 0
-7 -29 89 0
-7 -37 97 0
-7 -45 105 0
-7 -53 113 0
-7 -61 121 0
-15 -5 66 0
-15 -21 82 0
-15 -29 90 0
-15 -37 98 0
-15 -45 106 0
-15 -53 114 0
-15 -61 122 0
-23 -5 67 0
-23 -13 75 0
-23 -29 91 0
-23 -37 99 0
-23 -45 107 0
-23 -53 115 0
-23 -61 123 0
-31 -5 68 0
-31 -13 76 0
-31 -21 84 0
-31 -37 100 0
-31 -45 108 0
-31 -53 116 0
-31 -61 124 0
-39 -5 69 0
-39 -13 77 0
-39 -21 85 0
-39 -29 93 0
-39 -45 109 0
-39 -53 117 0
-39 -61 125 0
-47 -5 70 0
-47 -13 78 0
-47 -21 86 0
-47 -29 94 0
-47 -37 102 0
-47 -53 118 0
-47 -61 126 0
-55 -5 71 0
-55 -13 79 0
-55 -21 87 0
-55 -29 95 0
-55 -37 103 0
-55 -45 111 0
-55 -61 127 0
-63 -5 72 0
-63 -13 80 0
-63 -21 88 0
-63 -29 96 0
-63 -37 104 0
-63 -45 112 0
-63 -53 120 0
-7 -14 73 0
-7 -22 81 0
-7 -30 89 0
-7 -38 97 0
-7 -46 105 0
-7 -54 113 0
-7 -62 121 0
-15 -6 66 0
-15 -22 82 0
-15 -30 90 0
-15 -38 98 0
-15 -46 106 0
-15 -54 114 0
-15 -62 122 0
-23 -6 67 0
-23 -14 75 0
-23 -30 91 0
-23 -38 99 0
-23 -46 107 0
-23 -54 115 0
-23 -62 123 0
-31 -6 68 0
-31 -14 76 0
-31 -22 84 0
-31 -38 100 0
-31 -46 108 0
-31 -54 116 0
-31 -62 124 0
-39 -6 69 0
-39 -14 77 0
-39 -22 85 0
-39 -30 93 0
-39 -46 109 0
-39 -54 117 0
-39 -62 125 0
-47 -6 70 0
-47 -14 78 0
-47 -22 86 0
-47 -30 94 0
-47 -38 102 0
-47 -54 118 0
-47 -62 126 0
-55 -6 71 0
-55 -14 79 0
-55 -22 87 0
-55 -30 95 0
-55 -38 103 0
-55 -46 111 0
-55 -62 127 0
-63 -6 72 0
-63 -14 80 0
-63 -22 88 0
-63 -30 96 0
-63 -38 104 0
-63 -46 112 0
-63 -54 120 0
-8 -9 73 0
-8 -17 81 0
-8 -25 89 0
-8 -33 97 0
-8 -41 105 0
-8 -49 113 0
-8 -57 121 0
-16 -1 66 0
-16 -17 82 0
-16 -25 90 0
-16 -33 98 0
-16 -41 106 0
-16 -49 114 0
-16 -57 122 0
-24 -1 67 0
-24 -9 75 0
-24 -25 91 0
-24 -33 99 0
-24 -41 107 0
-24 -49 115 0
-24 -57 123 0
-32 -1 68 0
-32 -9 76 0
-32 -17 84 0
-32 -33 100 0
-32 -41 108 0
-32 -49 116 0
-32 -57 124 0
-40 -1 69 0
-40 -9 77 0
-40 -17 85 0
-40 -25 93 0
-40 -41 109 0
-40 -49 117 0
-40 -57 125 0
-48 -1 70 0
-48 -9 78 0
-48 -17 86 0
-48 -25 94 0
-48 -33 102 0
-48 -49 118 0
-48 -57 126 0
-56 -1 71 0
-56 -9 79 0
-56 -17 87 0
-56 -25 95 0
-56 -33 103 0
-56 -41 111 0
-56 -57 127 0
-64 -1 72 0
-64 -9 80 0
-64 -17 88 0
-64 -25 96 0
-64 -33 104 0
-64 -41 112 0
-64 -49 120 0
-8 -10 73 0
-8 -18 81 0
-8 -26 89 0
-8 -34 97 0
-8 -42 105 0
-8 -50 113 0
-8 -58 121 0
-16 -2 66 0
-16 -18 82 0
-16 -26 90 0
-16 -34 98 0
-16 -42 106 0
-16 -50 114 0
-16 -58 122 0
-24 -2 67 0
-24 -10 75 0
-24 -26 91 0
-24 -34 99 0
-24 -42 107 0
-24 -50 115 0
-24 -58 123 0
-32 -2 68 0
-32 -10 76 0
-32 -18 84 0
-32 -34 100 0
-32 -42 108 0
-32 -50 116 0
-32 -58 124 0
-40 -2 69 0
-40 -10 77 0
-40 -18 85 0
-40 -26 93 0
-40 -42 109 0
-40 -50 117 0
-40 -58 125 0
-48 -2 70 0
-48 -10 78 0
-48 -18 86 0
-48 -26 94 0
-48 -34 102 0
-48 -50 118 0
-48 -58 126 0
-56 -2 71 0
-56 -10 79 0
-56 -18 87 0
-56 -26 95 0
-56 -34 103 0
-56 -42 111 0
-56 -58 127 0
-64 -2 72 0
-64 -10 80 0
-64 -18 88 0
-64 -26 96 0
-64 -34 104 0
-64 -42 112 0
-64 -50 120 0
-8 -11 73 0
-8 -19 81 0
-8 -27 89 0
-8 -35 97 0
-8 -43 105 0
-8 -51 113 0
-8 -59 121 0
-16 -3 66 0
-16 -19 82 0
-16 -27 90 0
-16 -35 98 0
-16 -43 106 0
-16 -51 114 0
-16 -59 122 0
-24 -3 67 0
-24 -11 75 0
-24 -27 91 0
-24 -35 99 0
-24 -43 107 0
-24 -51 115 0
-24 -59 123 0
-32 -3 68 0
-32 -11 76 0
-32 -19 84 0
-32 -35 100 0
-32 -43 108 0
-32 -51 116 0
-32 -59 124 0
-40 -3 69 0
-40 -11 77 0
-40 -19 85 0
-40 -27 93 0
-40 -43 109 0
-40 -51 117 0
-40 -59 125 0
-48 -3 70 0
-48 -11 78 0
-48 -19 86 0
-48 -27 94 0
-48 -35 102 0
-48 -51 118 0
-48 -59 126 0
-56 -3 71 0
-56 -11 79 0
-56 -19 87 0
-56 -27 95 0
-56 -35 103 0
-56 -43 111 0
-56 -59 127 0
-64 -3 72 0
-64 -11 80 0
-64 -19 88 0
-64 -27 96 0
-64 -35 104 0
-64 -43 112 0
-64 -51 120 0
-8 -12 73 0
-8 -20 81 0
-8 -28 89 0
-8 -36 97 0
-8 -44 105 0
-8 -52 113 0
-8 -60 121 0
-16 -4 66 0
-16 -20 82 0
-16 -28 90 0
-16 -36 98 0
-16 -44 106 0
-16 -52 114 0
-16 -60 122 0
-24 -4 67 0
-24 -12 75 0
-24 -28 91 0
-24 -36 99 0
-24 -44 107 0
-24 -52 115 0
-24 -60 123 0
-32 -4 68 0
-32 -12 76 0
-32 -20 84 0
-32 -36 100 0
-32 -44 108 0
-32 -52 116 0
-32 -60 124 0
-40 -4 69 0
-40 -12 77 0
-40 -20 85 0
-40 -28 93 0
-40 -44 109 0
-40 -52 117 0
-40 -60 125 0
-48 -4 70 0
-48 -12 78 0
-48 -20 86 0
-48 -28 94 0
-48 -36 102 0
-48 -52 118 0
-48 -60 126 0
-56 -4 71 0
-56 -12 79 0
-56 -20 87 0
-56 -28 95 0
-56 -36 103 0
-56 -44 111 0
-56 -60 127 0
-64 -4 72 0
-64 -12 80 0
-64 -20 88 0
-64 -28 96 0
-64 -36 104 0
-64 -44 112 0
-64 -52 120 0
-8 -13 73 0
-8 -21 81 0
-8 -29 89 0
-8 -37 97 0
-8 -45 105 0
-8 -53 113 0
-8 -61 121 0
-16 -5 66 0
-16 -21 82 0
-16 -29 90 0
-16 -37 98 0
-16 -45 106 0
-16 -53 114 0
-16 -61 122 0
-24 -5 67 0
-24 -13 75 0
-24 -29 91 0
-24 -37 99 0
-24 -45 107 0
-24 -53 115 0
-24 -61 123 0
-32 -5 68 0
-32 -13 76 0
-32 -21 84 0
-32 -37 100 0
-32 -45 108 0
-32 -53 116 0
-32 -61 124 0
-40 -5 69 0
-40 -13 77 0
-40 -21 85 0
-40 -29 93 0
-40 -45 109 0
-40 -53 117 0
-40 -61 125 0
-48 -5 70 0
-48 -13 78 0
-48 -21 86 0
-48 -29 94 0
-48 -37 102 0
-48 -53 118 0
-48 -61 126 0
-56 -5 71 0
-56 -13 79 0
-56 -21 87 0
-56 -29 95 0
-56 -37 103 0
-56 -45 111 0
-56 -61 127 0
-64 -5 72 0
-64 -13 80 0
-64 -21 88 0
-64 -29 96 0
-64 -37 104 0
-64 -45 112 0
-64 -53 120 0
-8 -14 73 0
-8 -22 81 0
-8 -30 89 0
-8 -38 97 0
-8 -46 105 0
-8 -54 113 0
-8 -62 121 0
-16 -6 66 0
-16 -22 82 0
-16 -30 90 0
-16 -38 98 0
-16 -46 106 0
-16 -54 114 0
-16 -62 122 0
-24 -6 67 0
-24 -14 75 0
-24 -30 91 0
-24 -38 99 0
-24 -46 107 0
-24 -54 115 0
-24 -62 123 0
-32 -6 68 0
-32 -14 76 0
-32 -22 84 0
-32 -38 100 0
-32 -46 108 0
-32 -54 116 0
-32 -62 124 0
-40 -6 69 0
-40 -14 77 0
-40 -22 85 0
-40 -30 93 0
-40 -46 109 0
-40 -54 117 0
-40 -62 125 0
-48 -6 70 0
-48 -14 78 0
-48 -22 86 0
-48 -30 94 0
-48 -38 102 0
-48 -54 118 0
-48 -62 126 0
-56 -6 71 0
-56 -14 79 0
-56 -22 87 0
-56 -30 95 0
-56 -38 103 0
-56 -46 111 0
-56 -62 127 0
-64 -6 72 0
-64 -14 80 0
-64 -22 88 0
-64 -30 96 0
-64 -38 104 0
-64 -46 112 0
-64 -54 120 0
-8 -15 73 0
-8 -23 81 0
-8 -31 89 0
-8 -39 97 0
-8 -47 105 0
-8 -55 113 0
-8 -63 121 0
-16 -7 66 0
-16 -23 82 0
-16 -31 90 0
-16 -39 98 0
-16 -47 106 0
-16 -55 114 0
-16 -63 122 0
-24 -7 67 0
-24 -15 75 0
-24 -31 91 0
-24 -39 99 0
-24 -47 107 0
-24 -55 115 0
-24 -63 123 0
-32 -7 68 0
-32 -15 76 0
-32 -23 84 0
-32 -39 100 0
-32 -47 108 0
-32 -55 116 0
-32 -63 124 0
-40 -7 69 0
-40 -15 77 0
-40 -23 85 0
-40 -31 93 0
-40 -47 109 0
-40 -55 117 0
-40 -63 125 0
-48 -7 70 0
-48 -15 78 0
-48 -23 86 0
-48 -31 94 0
-48 -39 102 0
-48 -55 118 0
-48 -63 126 0
-56 -7 71 0
-56 -15 79 0
-56 -23 87 0
-56 -31 95 0
-56 -39 103 0
-56 -47 111 0
-56 -63 127 0
-64 -7 72 0
-64 -15 80 0
-64 -23 88 0
-64 -31 96 0
-64 -39 104 0
-64 -47 112 0
-64 -55 120 0
-129 -130 -73 0
-129 -131 -81 0
-129 -132 -89 0
-129 -133 -97 0
-129 -134 -105 0
-129 -135 -113 0
-129 -136 -121 0
-130 -129 -66 0
-130 -131 -82 0
-130 -132 -90 0
-130 -133 -98 0
-130 -134 -106 0
-130 -135 -114 0
-130 -136 -122 0
-131 -129 -67 0
-131 -130 -75 0
-131 -132 -91 0
-131 -133 -99 0
-131 -134 -107 0
-131 -135 -115 0
-131 -136 -123 0
-132 -129 -68 0
-132 -130 -76 0
-132 -131 -84 0
-132 -133 -100 0
-132 -134 -108 0
-132 -135 -116 0
-132 -136 -124 0
-133 -129 -69 0
-133 -130 -77 0
-133 -131 -85 0
-133 -132 -93 0
-133 -134 -109 0
-133 -135 -117 0
-133 -136 -125 0
-134 -129 -70 0
-134 -130 -78 0
-134 -131 -86 0
-134 -132 -94 0
-134 -133 -102 0
-134 -135 -118 0
-134 -136 -126 0
-135 -129 -71 0
-135 -130 -79 0
-135 -131 -87 0
-135 -132 -95 0
-135 -133 -103 0
-135 -134 -111 0
-135 -136 -127 0
-136 -129 -72 0
-136 -130 -80 0
-136 -131 -88 0
-136 -132 -96 0
-136 -133 -104 0
-136 -134 -112 0
-136 -135 -120 0
-137 -138 -73 0
-137 -139 -81 0
-137 -140 -89 0
-137 -141 -97 0
-137 -142 -105 0
-137 -143 -113 0
-137 -144 -121 0
-138 -137 -66 0
-138 -139 -82 0
-138 -140 -90 0
-138 -141 -98 0
-138 -142 -106 0
-138 -143 -114 0
-138 -144 -122 0
-139 -137 -67 0
-139 -138 -75 0
-139 -140 -91 0
-139 -141 -99 0
-139 -142 -107 0
-139 -143 -115 0
-139 -144 -123 0
-140 -137 -68 0
-140 -138 -76 0
-140 -139 -84 0
-140 -141 -100 0
-140 -142 -108 0
-140 -143 -116 0
-140 -144 -124 0
-141 -137 -69 0
-141 -138 -77 0
-141 -139 -85 0
-141 -140 -93 0
-141 -142 -109 0
-141 -143 -117 0
-141 -144 -125 0
-142 -137 -70 0
-142 -138 -78 0
-142 -139 -86 0
-142 -140 -94 0
-142 -141 -102 0
-142 -143 -118 0
-142 -144 -126 0
-143 -137 -71 0
-143 -138 -79 0
-143 -139 -87 0
-143 -140 -95 0
-143 -141 -103 0
-143 -142 -111 0
-143 -144 -127 0
-144 -137 -72 0
-144 -138 -80 0
-144 -139 -88 0
-144 -140 -96 0
-144 -141 -104 0
-144 -142 -112 0
-144 -143 -120 0
-145 -146 -73 0
-145 -147 -81 0
-145 -148 -89 0
-145 -149 -97 0
-145 -150 -105 0
-145 -151 -113 0
-145 -152 -121 0
-146 -145 -66 0
-146 -147 -82 0
-146 -148 -90 0
-146 -149 -98 0
-146 -150 -106 0
-146 -151 -114 0
-146 -152 -122 0
-147 -145 -67 0
-147 -146 -75 0
-147 -148 -91 0
-147 -149 -99 0
-147 -150 -107 0
-147 -151 -115 0
-147 -152 -123 0
-148 -145 -68 0
-148 -146 -76 0
-148 -147 -84 0
-148 -149 -100 0
-148 -150 -108 0
-148 -151 -116 0
-148 -152 -124 0
-149 -145 -69 0
-149 -146 -77 0
-149 -147 -85 0
-149 -148 -93 0
-149 -150 -109 0
-149 -151 -117 0
-149 -152 -125 0
-150 -145 -70 0
-150 -146 -78 0
-150 -147 -86 0
-150 -148 -94 0
-150 -149 -102 0
-150 -151 -118 0
-150 -152 -126 0
-151 -145 -71 0
-151 -146 -79 0
-151 -147 -87 0
-151 -148 -95 0
-151 -149 -103 0
-151 -150 -111 0
-151 -152 -127 0
-152 -145 -72 0
-152 -146 -80 0
-152 -147 -88 0
-152 -148 -96 0
-152 -149 -104 0
-152 -150 -112 0
-152 -151 -120 0
-153 -154 -73 0
-153 -155 -81 0
-153 -156 -89 0
-153 -157 -97 0
-153 -158 -105 0
-153 -159 -113 0
-153 -160 -121 0
-154 -153 -66 0
-154 -155 -82 0
-154 -156 -90 0
-154 -157 -98 0
-154 -158 -106 0
-154 -159 -114 0
-154 -160 -122 0
-155 -153 -67 0
-155 -154 -75 0
-155 -156 -91 0
-155 -157 -99 0
-155 -158 -107 0
-155 -159 -115 0
-155 -160 -123 0
-156 -153 -68 0
-156 -154 -76 0
-156 -155 -84 0
-156 -157 -100 0
-156 -158 -108 0
-156 -159 -116 0
-156 -160 -124 0
-157 -153 -69 0
-157 -154 -77 0
-157 -155 -85 0
-157 -156 -93 0
-157 -158 -109 0
-157 -159 -117 0
-157 -160 -125 0
-158 -153 -70 0
-158 -154 -78 0
-158 -155 -86 0
-158 -156 -94 0
-158 -157 -102 0
-158 -159 -118 0
-158 -160 -126 0
-159 -153 -71 0
-159 -154 -79 0
-159 -155 -87 0
-159 -156 -95 0
-159 -157 -103 0
-159 -158 -111 0
-159 -160 -127 0
-160 -153 -72 0
-160 -154 -80 0
-160 -155 -88 0
-160 -156 -96 0
-160 -157 -104 0
-160 -158 -112 0
-160 -159 -120 0
-161 -162 -73 0
-161 -163 -81 0
-161 -164 -89 0
-161 -165 -97 0
-161 -166 -105 0
-161 -167 -113 0
-161 -168 -121 0
-162 -161 -66 0
-162 -163 -82 0
-162 -164 -90 0
-162 -165 -98 0
-162 -166 -106 0
-162 -167 -114 0
-162 -168 -122 0
-163 -161 -67 0
-163 -162 -75 0
-163 -164 -91 0
-163 -165 -99 0
-163 -166 -107 0
-163 -167 -115 0
-163 -168 -123 0
-164 -161 -68 0
-164 -162 -76 0
-164 -163 -84 0
-164 -165 -100 0
-164 -166 -108 0
-164 -167 -116 0
-164 -168 -124 0
-165 -161 -69 0
-165 -162 -77 0
-165 -163 -85 0
-165 -164 -93 0
-165 -166 -109 0
-165 -167 -117 0
-165 -168 -125 0
-166 -161 -70 0
-166 -162 -78 0
-166 -163 -86 0
-166 -164 -94 0
-166 -165 -102 0
-166 -167 -118 0
-166 -168 -126 0
-167 -161 -71 0
-167 -162 -79 0
-167 -163 -87 0
-167 -164 -95 0
-167 -165 -103 0
-167 -166 -111 0
-167 -168 -127 0
-168 -161 -72 0
-168 -162 -80 0
-168 -163 -88 0
-168 -164 -96 0
-168 -165 -104 0
-168 -166 -112 0
-168 -167 -120 0
-169 -170 -73 0
-169 -171 -81 0
-169 -172 -89 0
-169 -173 -97 0
-169 -174 -105 0
-169 -175 -113 0
-169 -176 -121 0
-170 -169 -66 0
-170 -171 -82 0
-170 -172 -90 0
-170 -173 -98 0
-170 -174 -106 0
-170 -175 -114 0
-170 -176 -122 0
-171 -169 -67 0
-171 -170 -75 0
-171 -172 -91 0
-171 -173 -99 0
-171 -174 -107 0
-171 -175 -115 0
-171 -176 -123 0
-172 -169 -68 0
-172 -170 -76 0
-172 -171 -84 0
-172 -173 -100 0
-172 -174 -108 0
-172 -175 -116 0
-172 -176 -124 0
-173 -169 -69 0
-173 -170 -77 0
-173 -171 -85 0
-173 -172 -93 0
-173 -174 -109 0
-173 -175 -117 0
-173 -176 -125 0
-174 -169 -70 0
-174 -170 -78 0
-174 -171 -86 0
-174 -172 -94 0
-174 -173 -102 0
-174 -175 -118 0
-174 -176 -126 0
-175 -169 -71 0
-175 -170 -79 0
-175 -171 -87 0
-175 -172 -95 0
-175 -173 -103 0
-175 -174 -111 0
-175 -176 -127 0
-176 -169 -72 0
-176 -170 -80 0
-176 -171 -88 0
-176 -172 -96 0
-176 -173 -104 0
-176 -174 -112 0
-176 -175 -120 0
-177 -178 -73 0
-177 -179 -81 0
-177 -180 -89 0
-177 -181 -97 0
-177 -182 -105 0
-177 -183 -113 0
-177 -184 -121 0
-178 -177 -66 0
-178 -179 -82 0
-178 -180 -90 0
-178 -181 -98 0
-178 -182 -106 0
-178 -183 -114 0
-178 -184 -122 0
-179 -177 -67 0
-179 -178 -75 0
-179 -180 -91 0
-179 -181 -99 0
-179 -182 -107 0
-179 -183 -115 0
-179 -184 -123 0
-180 -177 -68 0
-180 -178 -76 0
-180 -179 -84 0
-180 -181 -100 0
-180 -182 -108 0
-180 -183 -116 0
-180 -184 -124 0
-181 -177 -69 0
-181 -178 -77 0
-181 -179 -85 0
-181 -180 -93 0
-181 -182 -109 0
-181 -183 -117 0
-181 -184 -125 0
-182 -177 -70 0
-182 -178 -78 0
-182 -179 -86 0
-182 -180 -94 0
-182 -181 -102 0
-182 -183 -118 0
-182 -184 -126 0
-183 -177 -71 0
-183 -178 -79 0
-183 -179 -87 0
-183 -180 -95 0
-183 -181 -103 0
-183 -182 -111 0
-183 -184 -127 0
-184 -177 -72 0
-184 -178 -80 0
-184 -179 -88 0
-184 -180 -96 0
-184 -181 -104 0
-184 -182 -112 0
-184 -183 -120 0
129 137 145 153 161 169 177 0
130 138 146 154 162 170 178 0
131 139 147 155 163 171 179 0
132 140 148 156 164 172 180 0
133 141 149 157 165 173 181 0
134 142 150 158 166 174 182 0
135 143 151 159 167 175 183 0
136 144 152 160 168 176 184 0
